NAME : census.standard.-65311333.tour
COMMENT : Length = -65311333
TYPE : TOUR
DIMENSION : 68
TOUR_SECTION
36
19
18
55
30
61
11
26
23
21
59
28
12
56
41
29
43
40
2
39
50
3
1
54
66
27
33
34
37
52
47
32
9
8
63
67
64
49
6
35
25
62
14
42
17
31
15
7
60
46
20
68
53
65
24
4
22
13
16
5
38
10
45
51
48
58
57
44
-1
EOF
